clingo version 5.4.1
Reading from provaASP24.lp
Solving...
Answer: 1
assign(1,80,14) assign(2,75,5) assign(3,42,20) assign(4,78,14) assign(5,42,20) assign(6,77,8) assign(7,44,20) assign(8,80,14) assign(9,75,5) assign(10,42,20) assign(11,72,5) assign(12,44,20) assign(13,44,20) assign(14,72,5) assign(15,80,14) assign(16,42,20) assign(17,77,8) assign(18,75,5) assign(19,80,14) assign(20,75,5) assign(21,72,5) assign(22,39,5) assign(23,40,20) assign(24,40,20) assign(25,44,20) assign(26,72,5) assign(27,77,8) assign(28,40,20) assign(29,40,20) assign(30,78,14) assign(31,78,14) assign(32,39,5) assign(33,39,5) assign(34,77,8) assign(35,39,5) count_seats_occupied(1,3,0) count_seats_occupied(1,7,0) count_seats_occupied(1,27,0) count_seats_occupied(1,28,0) count_seats_occupied(2,48,0) count_seats_occupied(2,49,0) count_seats_occupied(2,57,0) count_seats_occupied(2,59,0) count_seats_occupied(3,25,0) count_seats_occupied(3,29,0) count_seats_occupied(3,30,0) count_seats_occupied(3,31,0) count_seats_occupied(4,12,0) count_seats_occupied(4,13,0) count_seats_occupied(4,14,0) count_seats_occupied(4,15,0) count_seats_occupied(5,37,0) count_seats_occupied(5,39,4) count_seats_occupied(5,72,4) count_seats_occupied(5,75,4) count_seats_occupied(6,10,0) count_seats_occupied(6,11,0) count_seats_occupied(6,16,0) count_seats_occupied(6,17,0) count_seats_occupied(7,4,0) count_seats_occupied(7,6,0) count_seats_occupied(7,24,0) count_seats_occupied(7,38,0) count_seats_occupied(8,50,0) count_seats_occupied(8,64,0) count_seats_occupied(8,73,0) count_seats_occupied(8,77,4) count_seats_occupied(9,1,0) count_seats_occupied(9,65,0) count_seats_occupied(9,66,0) count_seats_occupied(9,67,0) count_seats_occupied(10,52,0) count_seats_occupied(10,54,0) count_seats_occupied(10,55,0) count_seats_occupied(10,56,0) count_seats_occupied(11,20,0) count_seats_occupied(11,21,0) count_seats_occupied(11,51,0) count_seats_occupied(11,58,0) count_seats_occupied(12,2,0) count_seats_occupied(12,22,0) count_seats_occupied(12,23,0) count_seats_occupied(12,45,0) count_seats_occupied(13,8,0) count_seats_occupied(13,9,0) count_seats_occupied(13,18,0) count_seats_occupied(13,19,0) count_seats_occupied(14,53,0) count_seats_occupied(14,76,0) count_seats_occupied(14,78,3) count_seats_occupied(14,80,4) count_seats_occupied(15,26,0) count_seats_occupied(15,32,0) count_seats_occupied(15,46,0) count_seats_occupied(15,47,0) count_seats_occupied(16,5,0) count_seats_occupied(16,33,0) count_seats_occupied(16,35,0) count_seats_occupied(16,41,0) count_seats_occupied(17,68,0) count_seats_occupied(17,69,0) count_seats_occupied(17,70,0) count_seats_occupied(17,71,0) count_seats_occupied(18,60,0) count_seats_occupied(18,61,0) count_seats_occupied(18,62,0) count_seats_occupied(18,63,0) count_seats_occupied(19,34,0) count_seats_occupied(19,36,0) count_seats_occupied(19,74,0) count_seats_occupied(19,79,0) count_seats_occupied(20,40,4) count_seats_occupied(20,42,4) count_seats_occupied(20,43,0) count_seats_occupied(20,44,4)
Optimization: 4
Answer: 2
assign(1,71,17) assign(2,40,20) assign(3,43,20) assign(4,44,20) assign(5,69,17) assign(6,42,20) assign(7,68,17) assign(8,44,20) assign(9,43,20) assign(10,70,17) assign(11,37,5) assign(12,68,17) assign(13,68,17) assign(14,37,5) assign(15,44,20) assign(16,70,17) assign(17,69,17) assign(18,44,20) assign(19,71,17) assign(20,75,5) assign(21,37,5) assign(22,39,5) assign(23,42,20) assign(24,75,5) assign(25,40,20) assign(26,40,20) assign(27,42,20) assign(28,43,20) assign(29,43,20) assign(30,40,20) assign(31,69,17) assign(32,39,5) assign(33,71,17) assign(34,69,17) assign(35,71,17) count_seats_occupied(1,3,0) count_seats_occupied(1,7,0) count_seats_occupied(1,27,0) count_seats_occupied(1,28,0) count_seats_occupied(2,48,0) count_seats_occupied(2,49,0) count_seats_occupied(2,57,0) count_seats_occupied(2,59,0) count_seats_occupied(3,29,0) count_seats_occupied(3,30,0) count_seats_occupied(3,31,0) count_seats_occupied(3,32,0) count_seats_occupied(4,12,0) count_seats_occupied(4,13,0) count_seats_occupied(4,14,0) count_seats_occupied(4,15,0) count_seats_occupied(5,37,3) count_seats_occupied(5,38,0) count_seats_occupied(5,39,2) count_seats_occupied(5,75,2) count_seats_occupied(6,10,0) count_seats_occupied(6,11,0) count_seats_occupied(6,17,0) count_seats_occupied(6,45,0) count_seats_occupied(7,4,0) count_seats_occupied(7,5,0) count_seats_occupied(7,6,0) count_seats_occupied(7,72,0) count_seats_occupied(8,16,0) count_seats_occupied(8,50,0) count_seats_occupied(8,64,0) count_seats_occupied(8,77,0) count_seats_occupied(9,1,0) count_seats_occupied(9,65,0) count_seats_occupied(9,66,0) count_seats_occupied(9,67,0) count_seats_occupied(10,52,0) count_seats_occupied(10,54,0) count_seats_occupied(10,55,0) count_seats_occupied(10,56,0) count_seats_occupied(11,20,0) count_seats_occupied(11,21,0) count_seats_occupied(11,51,0) count_seats_occupied(11,58,0) count_seats_occupied(12,2,0) count_seats_occupied(12,22,0) count_seats_occupied(12,23,0) count_seats_occupied(12,73,0) count_seats_occupied(13,8,0) count_seats_occupied(13,9,0) count_seats_occupied(13,18,0) count_seats_occupied(13,19,0) count_seats_occupied(14,53,0) count_seats_occupied(14,76,0) count_seats_occupied(14,78,0) count_seats_occupied(14,80,0) count_seats_occupied(15,24,0) count_seats_occupied(15,26,0) count_seats_occupied(15,46,0) count_seats_occupied(15,47,0) count_seats_occupied(16,25,0) count_seats_occupied(16,35,0) count_seats_occupied(16,41,0) count_seats_occupied(16,74,0) count_seats_occupied(17,68,3) count_seats_occupied(17,69,4) count_seats_occupied(17,70,2) count_seats_occupied(17,71,4) count_seats_occupied(18,60,0) count_seats_occupied(18,61,0) count_seats_occupied(18,62,0) count_seats_occupied(18,63,0) count_seats_occupied(19,33,0) count_seats_occupied(19,34,0) count_seats_occupied(19,36,0) count_seats_occupied(19,79,0) count_seats_occupied(20,40,4) count_seats_occupied(20,42,3) count_seats_occupied(20,43,4) count_seats_occupied(20,44,4)
Optimization: 3
SATISFIABLE

TIME LIMIT   : 1
Models       : 2+
  Optimum    : unknown
Optimization : 3
Calls        : 1
Time         : 303.682s (Solving: 206.19s 1st Model: 10.10s Unsat: 0.00s)
CPU Time     : 280.207s
